# Solution for model obj
# Objective value = 5.2265274453999336e+04
z 5.2265274453999336e+04
X_1_1 1
X_1_2 0
X_1_3 0
X_1_4 0
X_1_5 0
X_1_6 0
X_1_7 0
X_1_8 0
X_1_9 0
X_1_10 0
X_1_11 0
X_1_12 0
X_1_13 0
X_1_14 0
X_1_15 0
X_1_16 0
X_1_17 0
X_1_18 0
X_1_19 0
X_1_20 0
X_1_21 0
X_1_22 0
X_1_23 0
X_1_24 0
X_1_25 0
X_1_26 0
X_1_27 0
X_1_28 0
X_1_29 0
X_1_30 0
X_1_31 0
X_1_32 0
X_1_33 0
X_1_34 0
X_1_35 0
X_1_36 0
X_1_37 0
X_1_38 0
X_1_39 0
X_1_40 0
X_2_1 0
X_2_2 0
X_2_3 0
X_2_4 0
X_2_5 0
X_2_6 0
X_2_7 0
X_2_8 0
X_2_9 0
X_2_10 0
X_2_11 0
X_2_12 1
X_2_13 0
X_2_14 0
X_2_15 0
X_2_16 0
X_2_17 0
X_2_18 0
X_2_19 0
X_2_20 0
X_2_21 0
X_2_22 0
X_2_23 0
X_2_24 0
X_2_25 0
X_2_26 0
X_2_27 0
X_2_28 0
X_2_29 0
X_2_30 0
X_2_31 0
X_2_32 0
X_2_33 0
X_2_34 0
X_2_35 0
X_2_36 0
X_2_37 0
X_2_38 0
X_2_39 0
X_2_40 0
X_3_1 0
X_3_2 0
X_3_3 0
X_3_4 0
X_3_5 0
X_3_6 0
X_3_7 0
X_3_8 0
X_3_9 0
X_3_10 0
X_3_11 0
X_3_12 1
X_3_13 0
X_3_14 0
X_3_15 0
X_3_16 0
X_3_17 0
X_3_18 0
X_3_19 0
X_3_20 0
X_3_21 0
X_3_22 0
X_3_23 0
X_3_24 0
X_3_25 0
X_3_26 0
X_3_27 0
X_3_28 0
X_3_29 0
X_3_30 0
X_3_31 0
X_3_32 0
X_3_33 0
X_3_34 0
X_3_35 0
X_3_36 0
X_3_37 0
X_3_38 0
X_3_39 0
X_3_40 0
X_4_1 0
X_4_2 0
X_4_3 0
X_4_4 0
X_4_5 0
X_4_6 0
X_4_7 0
X_4_8 0
X_4_9 0
X_4_10 0
X_4_11 0
X_4_12 1
X_4_13 0
X_4_14 0
X_4_15 0
X_4_16 0
X_4_17 0
X_4_18 0
X_4_19 0
X_4_20 0
X_4_21 0
X_4_22 0
X_4_23 0
X_4_24 0
X_4_25 0
X_4_26 0
X_4_27 0
X_4_28 0
X_4_29 0
X_4_30 0
X_4_31 0
X_4_32 0
X_4_33 0
X_4_34 0
X_4_35 0
X_4_36 0
X_4_37 0
X_4_38 0
X_4_39 0
X_4_40 0
X_5_1 0
X_5_2 0
X_5_3 0
X_5_4 0
X_5_5 0
X_5_6 0
X_5_7 0
X_5_8 0
X_5_9 0
X_5_10 0
X_5_11 0
X_5_12 1
X_5_13 0
X_5_14 0
X_5_15 0
X_5_16 0
X_5_17 0
X_5_18 0
X_5_19 0
X_5_20 0
X_5_21 0
X_5_22 0
X_5_23 0
X_5_24 0
X_5_25 0
X_5_26 0
X_5_27 0
X_5_28 0
X_5_29 0
X_5_30 0
X_5_31 0
X_5_32 0
X_5_33 0
X_5_34 0
X_5_35 0
X_5_36 0
X_5_37 0
X_5_38 0
X_5_39 0
X_5_40 0
X_6_1 0
X_6_2 0
X_6_3 0
X_6_4 0
X_6_5 0
X_6_6 0
X_6_7 0
X_6_8 0
X_6_9 0
X_6_10 0
X_6_11 0
X_6_12 1
X_6_13 0
X_6_14 0
X_6_15 0
X_6_16 0
X_6_17 0
X_6_18 0
X_6_19 0
X_6_20 0
X_6_21 0
X_6_22 0
X_6_23 0
X_6_24 0
X_6_25 0
X_6_26 0
X_6_27 0
X_6_28 0
X_6_29 0
X_6_30 0
X_6_31 0
X_6_32 0
X_6_33 0
X_6_34 0
X_6_35 0
X_6_36 0
X_6_37 0
X_6_38 0
X_6_39 0
X_6_40 0
X_7_1 0
X_7_2 0
X_7_3 0
X_7_4 0
X_7_5 0
X_7_6 0
X_7_7 0
X_7_8 0
X_7_9 0
X_7_10 0
X_7_11 0
X_7_12 1
X_7_13 0
X_7_14 0
X_7_15 0
X_7_16 0
X_7_17 0
X_7_18 0
X_7_19 0
X_7_20 0
X_7_21 0
X_7_22 0
X_7_23 0
X_7_24 0
X_7_25 0
X_7_26 0
X_7_27 0
X_7_28 0
X_7_29 0
X_7_30 0
X_7_31 0
X_7_32 0
X_7_33 0
X_7_34 0
X_7_35 0
X_7_36 0
X_7_37 0
X_7_38 0
X_7_39 0
X_7_40 0
X_8_1 0
X_8_2 0
X_8_3 0
X_8_4 0
X_8_5 0
X_8_6 0
X_8_7 0
X_8_8 1
X_8_9 0
X_8_10 0
X_8_11 0
X_8_12 0
X_8_13 0
X_8_14 0
X_8_15 0
X_8_16 0
X_8_17 0
X_8_18 0
X_8_19 0
X_8_20 0
X_8_21 0
X_8_22 0
X_8_23 0
X_8_24 0
X_8_25 0
X_8_26 0
X_8_27 0
X_8_28 0
X_8_29 0
X_8_30 0
X_8_31 0
X_8_32 0
X_8_33 0
X_8_34 0
X_8_35 0
X_8_36 0
X_8_37 0
X_8_38 0
X_8_39 0
X_8_40 0
X_9_1 0
X_9_2 0
X_9_3 0
X_9_4 0
X_9_5 0
X_9_6 0
X_9_7 0
X_9_8 0
X_9_9 0
X_9_10 0
X_9_11 0
X_9_12 1
X_9_13 0
X_9_14 0
X_9_15 0
X_9_16 0
X_9_17 0
X_9_18 0
X_9_19 0
X_9_20 0
X_9_21 0
X_9_22 0
X_9_23 0
X_9_24 0
X_9_25 0
X_9_26 0
X_9_27 0
X_9_28 0
X_9_29 0
X_9_30 0
X_9_31 0
X_9_32 0
X_9_33 0
X_9_34 0
X_9_35 0
X_9_36 0
X_9_37 0
X_9_38 0
X_9_39 0
X_9_40 0
X_10_1 0
X_10_2 0
X_10_3 0
X_10_4 0
X_10_5 0
X_10_6 0
X_10_7 0
X_10_8 0
X_10_9 0
X_10_10 0
X_10_11 0
X_10_12 1
X_10_13 0
X_10_14 0
X_10_15 0
X_10_16 0
X_10_17 0
X_10_18 0
X_10_19 0
X_10_20 0
X_10_21 0
X_10_22 0
X_10_23 0
X_10_24 0
X_10_25 0
X_10_26 0
X_10_27 0
X_10_28 0
X_10_29 0
X_10_30 0
X_10_31 0
X_10_32 0
X_10_33 0
X_10_34 0
X_10_35 0
X_10_36 0
X_10_37 0
X_10_38 0
X_10_39 0
X_10_40 0
X_11_1 0
X_11_2 0
X_11_3 0
X_11_4 0
X_11_5 0
X_11_6 0
X_11_7 0
X_11_8 0
X_11_9 0
X_11_10 0
X_11_11 0
X_11_12 1
X_11_13 0
X_11_14 0
X_11_15 0
X_11_16 0
X_11_17 0
X_11_18 0
X_11_19 0
X_11_20 0
X_11_21 0
X_11_22 0
X_11_23 0
X_11_24 0
X_11_25 0
X_11_26 0
X_11_27 0
X_11_28 0
X_11_29 0
X_11_30 0
X_11_31 0
X_11_32 0
X_11_33 0
X_11_34 0
X_11_35 0
X_11_36 0
X_11_37 0
X_11_38 0
X_11_39 0
X_11_40 0
X_12_1 0
X_12_2 0
X_12_3 0
X_12_4 0
X_12_5 0
X_12_6 0
X_12_7 0
X_12_8 0
X_12_9 0
X_12_10 0
X_12_11 0
X_12_12 1
X_12_13 0
X_12_14 0
X_12_15 0
X_12_16 0
X_12_17 0
X_12_18 0
X_12_19 0
X_12_20 0
X_12_21 0
X_12_22 0
X_12_23 0
X_12_24 0
X_12_25 0
X_12_26 0
X_12_27 0
X_12_28 0
X_12_29 0
X_12_30 0
X_12_31 0
X_12_32 0
X_12_33 0
X_12_34 0
X_12_35 0
X_12_36 0
X_12_37 0
X_12_38 0
X_12_39 0
X_12_40 0
X_13_1 0
X_13_2 0
X_13_3 0
X_13_4 0
X_13_5 0
X_13_6 0
X_13_7 0
X_13_8 0
X_13_9 0
X_13_10 0
X_13_11 0
X_13_12 1
X_13_13 0
X_13_14 0
X_13_15 0
X_13_16 0
X_13_17 0
X_13_18 0
X_13_19 0
X_13_20 0
X_13_21 0
X_13_22 0
X_13_23 0
X_13_24 0
X_13_25 0
X_13_26 0
X_13_27 0
X_13_28 0
X_13_29 0
X_13_30 0
X_13_31 0
X_13_32 0
X_13_33 0
X_13_34 0
X_13_35 0
X_13_36 0
X_13_37 0
X_13_38 0
X_13_39 0
X_13_40 0
X_14_1 0
X_14_2 0
X_14_3 0
X_14_4 0
X_14_5 0
X_14_6 0
X_14_7 0
X_14_8 0
X_14_9 0
X_14_10 0
X_14_11 0
X_14_12 1
X_14_13 0
X_14_14 0
X_14_15 0
X_14_16 0
X_14_17 0
X_14_18 0
X_14_19 0
X_14_20 0
X_14_21 0
X_14_22 0
X_14_23 0
X_14_24 0
X_14_25 0
X_14_26 0
X_14_27 0
X_14_28 0
X_14_29 0
X_14_30 0
X_14_31 0
X_14_32 0
X_14_33 0
X_14_34 0
X_14_35 0
X_14_36 0
X_14_37 0
X_14_38 0
X_14_39 0
X_14_40 0
X_15_1 0
X_15_2 0
X_15_3 0
X_15_4 0
X_15_5 0
X_15_6 0
X_15_7 0
X_15_8 0
X_15_9 0
X_15_10 0
X_15_11 0
X_15_12 1
X_15_13 0
X_15_14 0
X_15_15 0
X_15_16 0
X_15_17 0
X_15_18 0
X_15_19 0
X_15_20 0
X_15_21 0
X_15_22 0
X_15_23 0
X_15_24 0
X_15_25 0
X_15_26 0
X_15_27 0
X_15_28 0
X_15_29 0
X_15_30 0
X_15_31 0
X_15_32 0
X_15_33 0
X_15_34 0
X_15_35 0
X_15_36 0
X_15_37 0
X_15_38 0
X_15_39 0
X_15_40 0
X_16_1 0
X_16_2 0
X_16_3 0
X_16_4 0
X_16_5 0
X_16_6 0
X_16_7 0
X_16_8 0
X_16_9 0
X_16_10 0
X_16_11 0
X_16_12 1
X_16_13 0
X_16_14 0
X_16_15 0
X_16_16 0
X_16_17 0
X_16_18 0
X_16_19 0
X_16_20 0
X_16_21 0
X_16_22 0
X_16_23 0
X_16_24 0
X_16_25 0
X_16_26 0
X_16_27 0
X_16_28 0
X_16_29 0
X_16_30 0
X_16_31 0
X_16_32 0
X_16_33 0
X_16_34 0
X_16_35 0
X_16_36 0
X_16_37 0
X_16_38 0
X_16_39 0
X_16_40 0
X_17_1 0
X_17_2 0
X_17_3 0
X_17_4 0
X_17_5 0
X_17_6 0
X_17_7 0
X_17_8 0
X_17_9 0
X_17_10 0
X_17_11 0
X_17_12 1
X_17_13 0
X_17_14 0
X_17_15 0
X_17_16 0
X_17_17 0
X_17_18 0
X_17_19 0
X_17_20 0
X_17_21 0
X_17_22 0
X_17_23 0
X_17_24 0
X_17_25 0
X_17_26 0
X_17_27 0
X_17_28 0
X_17_29 0
X_17_30 0
X_17_31 0
X_17_32 0
X_17_33 0
X_17_34 0
X_17_35 0
X_17_36 0
X_17_37 0
X_17_38 0
X_17_39 0
X_17_40 0
X_18_1 0
X_18_2 0
X_18_3 0
X_18_4 0
X_18_5 0
X_18_6 0
X_18_7 0
X_18_8 0
X_18_9 0
X_18_10 0
X_18_11 0
X_18_12 1
X_18_13 0
X_18_14 0
X_18_15 0
X_18_16 0
X_18_17 0
X_18_18 0
X_18_19 0
X_18_20 0
X_18_21 0
X_18_22 0
X_18_23 0
X_18_24 0
X_18_25 0
X_18_26 0
X_18_27 0
X_18_28 0
X_18_29 0
X_18_30 0
X_18_31 0
X_18_32 0
X_18_33 0
X_18_34 0
X_18_35 0
X_18_36 0
X_18_37 0
X_18_38 0
X_18_39 0
X_18_40 0
X_19_1 0
X_19_2 0
X_19_3 0
X_19_4 0
X_19_5 0
X_19_6 0
X_19_7 0
X_19_8 0
X_19_9 0
X_19_10 0
X_19_11 0
X_19_12 1
X_19_13 0
X_19_14 0
X_19_15 0
X_19_16 0
X_19_17 0
X_19_18 0
X_19_19 0
X_19_20 0
X_19_21 0
X_19_22 0
X_19_23 0
X_19_24 0
X_19_25 0
X_19_26 0
X_19_27 0
X_19_28 0
X_19_29 0
X_19_30 0
X_19_31 0
X_19_32 0
X_19_33 0
X_19_34 0
X_19_35 0
X_19_36 0
X_19_37 0
X_19_38 0
X_19_39 0
X_19_40 0
X_20_1 0
X_20_2 0
X_20_3 0
X_20_4 0
X_20_5 0
X_20_6 0
X_20_7 0
X_20_8 0
X_20_9 0
X_20_10 0
X_20_11 0
X_20_12 1
X_20_13 0
X_20_14 0
X_20_15 0
X_20_16 0
X_20_17 0
X_20_18 0
X_20_19 0
X_20_20 0
X_20_21 0
X_20_22 0
X_20_23 0
X_20_24 0
X_20_25 0
X_20_26 0
X_20_27 0
X_20_28 0
X_20_29 0
X_20_30 0
X_20_31 0
X_20_32 0
X_20_33 0
X_20_34 0
X_20_35 0
X_20_36 0
X_20_37 0
X_20_38 0
X_20_39 0
X_20_40 0
X_21_1 0
X_21_2 0
X_21_3 0
X_21_4 0
X_21_5 0
X_21_6 0
X_21_7 0
X_21_8 0
X_21_9 0
X_21_10 0
X_21_11 0
X_21_12 1
X_21_13 0
X_21_14 0
X_21_15 0
X_21_16 0
X_21_17 0
X_21_18 0
X_21_19 0
X_21_20 0
X_21_21 0
X_21_22 0
X_21_23 0
X_21_24 0
X_21_25 0
X_21_26 0
X_21_27 0
X_21_28 0
X_21_29 0
X_21_30 0
X_21_31 0
X_21_32 0
X_21_33 0
X_21_34 0
X_21_35 0
X_21_36 0
X_21_37 0
X_21_38 0
X_21_39 0
X_21_40 0
X_22_1 0
X_22_2 0
X_22_3 0
X_22_4 0
X_22_5 0
X_22_6 0
X_22_7 0
X_22_8 0
X_22_9 0
X_22_10 0
X_22_11 0
X_22_12 1
X_22_13 0
X_22_14 0
X_22_15 0
X_22_16 0
X_22_17 0
X_22_18 0
X_22_19 0
X_22_20 0
X_22_21 0
X_22_22 0
X_22_23 0
X_22_24 0
X_22_25 0
X_22_26 0
X_22_27 0
X_22_28 0
X_22_29 0
X_22_30 0
X_22_31 0
X_22_32 0
X_22_33 0
X_22_34 0
X_22_35 0
X_22_36 0
X_22_37 0
X_22_38 0
X_22_39 0
X_22_40 0
X_23_1 0
X_23_2 0
X_23_3 0
X_23_4 0
X_23_5 0
X_23_6 0
X_23_7 0
X_23_8 0
X_23_9 0
X_23_10 0
X_23_11 0
X_23_12 1
X_23_13 0
X_23_14 0
X_23_15 0
X_23_16 0
X_23_17 0
X_23_18 0
X_23_19 0
X_23_20 0
X_23_21 0
X_23_22 0
X_23_23 0
X_23_24 0
X_23_25 0
X_23_26 0
X_23_27 0
X_23_28 0
X_23_29 0
X_23_30 0
X_23_31 0
X_23_32 0
X_23_33 0
X_23_34 0
X_23_35 0
X_23_36 0
X_23_37 0
X_23_38 0
X_23_39 0
X_23_40 0
X_24_1 0
X_24_2 0
X_24_3 0
X_24_4 0
X_24_5 0
X_24_6 0
X_24_7 0
X_24_8 0
X_24_9 0
X_24_10 0
X_24_11 0
X_24_12 1
X_24_13 0
X_24_14 0
X_24_15 0
X_24_16 0
X_24_17 0
X_24_18 0
X_24_19 0
X_24_20 0
X_24_21 0
X_24_22 0
X_24_23 0
X_24_24 0
X_24_25 0
X_24_26 0
X_24_27 0
X_24_28 0
X_24_29 0
X_24_30 0
X_24_31 0
X_24_32 0
X_24_33 0
X_24_34 0
X_24_35 0
X_24_36 0
X_24_37 0
X_24_38 0
X_24_39 0
X_24_40 0
X_25_1 0
X_25_2 0
X_25_3 0
X_25_4 0
X_25_5 0
X_25_6 0
X_25_7 0
X_25_8 0
X_25_9 0
X_25_10 0
X_25_11 0
X_25_12 1
X_25_13 0
X_25_14 0
X_25_15 0
X_25_16 0
X_25_17 0
X_25_18 0
X_25_19 0
X_25_20 0
X_25_21 0
X_25_22 0
X_25_23 0
X_25_24 0
X_25_25 0
X_25_26 0
X_25_27 0
X_25_28 0
X_25_29 0
X_25_30 0
X_25_31 0
X_25_32 0
X_25_33 0
X_25_34 0
X_25_35 0
X_25_36 0
X_25_37 0
X_25_38 0
X_25_39 0
X_25_40 0
X_26_1 0
X_26_2 0
X_26_3 0
X_26_4 0
X_26_5 0
X_26_6 0
X_26_7 0
X_26_8 0
X_26_9 0
X_26_10 0
X_26_11 0
X_26_12 1
X_26_13 0
X_26_14 0
X_26_15 0
X_26_16 0
X_26_17 0
X_26_18 0
X_26_19 0
X_26_20 0
X_26_21 0
X_26_22 0
X_26_23 0
X_26_24 0
X_26_25 0
X_26_26 0
X_26_27 0
X_26_28 0
X_26_29 0
X_26_30 0
X_26_31 0
X_26_32 0
X_26_33 0
X_26_34 0
X_26_35 0
X_26_36 0
X_26_37 0
X_26_38 0
X_26_39 0
X_26_40 0
X_27_1 0
X_27_2 0
X_27_3 0
X_27_4 0
X_27_5 0
X_27_6 0
X_27_7 0
X_27_8 0
X_27_9 0
X_27_10 0
X_27_11 0
X_27_12 1
X_27_13 0
X_27_14 0
X_27_15 0
X_27_16 0
X_27_17 0
X_27_18 0
X_27_19 0
X_27_20 0
X_27_21 0
X_27_22 0
X_27_23 0
X_27_24 0
X_27_25 0
X_27_26 0
X_27_27 0
X_27_28 0
X_27_29 0
X_27_30 0
X_27_31 0
X_27_32 0
X_27_33 0
X_27_34 0
X_27_35 0
X_27_36 0
X_27_37 0
X_27_38 0
X_27_39 0
X_27_40 0
X_28_1 0
X_28_2 0
X_28_3 0
X_28_4 0
X_28_5 0
X_28_6 0
X_28_7 0
X_28_8 0
X_28_9 0
X_28_10 0
X_28_11 0
X_28_12 1
X_28_13 0
X_28_14 0
X_28_15 0
X_28_16 0
X_28_17 0
X_28_18 0
X_28_19 0
X_28_20 0
X_28_21 0
X_28_22 0
X_28_23 0
X_28_24 0
X_28_25 0
X_28_26 0
X_28_27 0
X_28_28 0
X_28_29 0
X_28_30 0
X_28_31 0
X_28_32 0
X_28_33 0
X_28_34 0
X_28_35 0
X_28_36 0
X_28_37 0
X_28_38 0
X_28_39 0
X_28_40 0
X_29_1 0
X_29_2 0
X_29_3 0
X_29_4 0
X_29_5 0
X_29_6 0
X_29_7 0
X_29_8 0
X_29_9 0
X_29_10 0
X_29_11 0
X_29_12 1
X_29_13 0
X_29_14 0
X_29_15 0
X_29_16 0
X_29_17 0
X_29_18 0
X_29_19 0
X_29_20 0
X_29_21 0
X_29_22 0
X_29_23 0
X_29_24 0
X_29_25 0
X_29_26 0
X_29_27 0
X_29_28 0
X_29_29 0
X_29_30 0
X_29_31 0
X_29_32 0
X_29_33 0
X_29_34 0
X_29_35 0
X_29_36 0
X_29_37 0
X_29_38 0
X_29_39 0
X_29_40 0
X_30_1 0
X_30_2 0
X_30_3 0
X_30_4 0
X_30_5 0
X_30_6 0
X_30_7 0
X_30_8 0
X_30_9 0
X_30_10 0
X_30_11 0
X_30_12 1
X_30_13 0
X_30_14 0
X_30_15 0
X_30_16 0
X_30_17 0
X_30_18 0
X_30_19 0
X_30_20 0
X_30_21 0
X_30_22 0
X_30_23 0
X_30_24 0
X_30_25 0
X_30_26 0
X_30_27 0
X_30_28 0
X_30_29 0
X_30_30 0
X_30_31 0
X_30_32 0
X_30_33 0
X_30_34 0
X_30_35 0
X_30_36 0
X_30_37 0
X_30_38 0
X_30_39 0
X_30_40 0
X_31_1 0
X_31_2 0
X_31_3 0
X_31_4 0
X_31_5 0
X_31_6 0
X_31_7 0
X_31_8 0
X_31_9 0
X_31_10 0
X_31_11 0
X_31_12 1
X_31_13 0
X_31_14 0
X_31_15 0
X_31_16 0
X_31_17 0
X_31_18 0
X_31_19 0
X_31_20 0
X_31_21 0
X_31_22 0
X_31_23 0
X_31_24 0
X_31_25 0
X_31_26 0
X_31_27 0
X_31_28 0
X_31_29 0
X_31_30 0
X_31_31 0
X_31_32 0
X_31_33 0
X_31_34 0
X_31_35 0
X_31_36 0
X_31_37 0
X_31_38 0
X_31_39 0
X_31_40 0
X_32_1 0
X_32_2 0
X_32_3 0
X_32_4 0
X_32_5 0
X_32_6 0
X_32_7 0
X_32_8 0
X_32_9 0
X_32_10 0
X_32_11 0
X_32_12 1
X_32_13 0
X_32_14 0
X_32_15 0
X_32_16 0
X_32_17 0
X_32_18 0
X_32_19 0
X_32_20 0
X_32_21 0
X_32_22 0
X_32_23 0
X_32_24 0
X_32_25 0
X_32_26 0
X_32_27 0
X_32_28 0
X_32_29 0
X_32_30 0
X_32_31 0
X_32_32 0
X_32_33 0
X_32_34 0
X_32_35 0
X_32_36 0
X_32_37 0
X_32_38 0
X_32_39 0
X_32_40 0
X_33_1 0
X_33_2 0
X_33_3 0
X_33_4 0
X_33_5 0
X_33_6 0
X_33_7 0
X_33_8 0
X_33_9 0
X_33_10 0
X_33_11 0
X_33_12 0
X_33_13 0
X_33_14 0
X_33_15 0
X_33_16 0
X_33_17 0
X_33_18 0
X_33_19 0
X_33_20 0
X_33_21 0
X_33_22 0
X_33_23 0
X_33_24 0
X_33_25 0
X_33_26 0
X_33_27 0
X_33_28 0
X_33_29 0
X_33_30 0
X_33_31 0
X_33_32 0
X_33_33 1
X_33_34 0
X_33_35 0
X_33_36 0
X_33_37 0
X_33_38 0
X_33_39 0
X_33_40 0
X_34_1 0
X_34_2 0
X_34_3 0
X_34_4 0
X_34_5 0
X_34_6 0
X_34_7 0
X_34_8 0
X_34_9 0
X_34_10 0
X_34_11 0
X_34_12 1
X_34_13 0
X_34_14 0
X_34_15 0
X_34_16 0
X_34_17 0
X_34_18 0
X_34_19 0
X_34_20 0
X_34_21 0
X_34_22 0
X_34_23 0
X_34_24 0
X_34_25 0
X_34_26 0
X_34_27 0
X_34_28 0
X_34_29 0
X_34_30 0
X_34_31 0
X_34_32 0
X_34_33 0
X_34_34 0
X_34_35 0
X_34_36 0
X_34_37 0
X_34_38 0
X_34_39 0
X_34_40 0
X_35_1 0
X_35_2 0
X_35_3 0
X_35_4 0
X_35_5 0
X_35_6 0
X_35_7 0
X_35_8 0
X_35_9 0
X_35_10 0
X_35_11 0
X_35_12 1
X_35_13 0
X_35_14 0
X_35_15 0
X_35_16 0
X_35_17 0
X_35_18 0
X_35_19 0
X_35_20 0
X_35_21 0
X_35_22 0
X_35_23 0
X_35_24 0
X_35_25 0
X_35_26 0
X_35_27 0
X_35_28 0
X_35_29 0
X_35_30 0
X_35_31 0
X_35_32 0
X_35_33 0
X_35_34 0
X_35_35 0
X_35_36 0
X_35_37 0
X_35_38 0
X_35_39 0
X_35_40 0
X_36_1 0
X_36_2 0
X_36_3 0
X_36_4 0
X_36_5 0
X_36_6 0
X_36_7 0
X_36_8 0
X_36_9 0
X_36_10 0
X_36_11 0
X_36_12 1
X_36_13 0
X_36_14 0
X_36_15 0
X_36_16 0
X_36_17 0
X_36_18 0
X_36_19 0
X_36_20 0
X_36_21 0
X_36_22 0
X_36_23 0
X_36_24 0
X_36_25 0
X_36_26 0
X_36_27 0
X_36_28 0
X_36_29 0
X_36_30 0
X_36_31 0
X_36_32 0
X_36_33 0
X_36_34 0
X_36_35 0
X_36_36 0
X_36_37 0
X_36_38 0
X_36_39 0
X_36_40 0
X_37_1 0
X_37_2 0
X_37_3 0
X_37_4 0
X_37_5 0
X_37_6 0
X_37_7 0
X_37_8 0
X_37_9 0
X_37_10 0
X_37_11 0
X_37_12 1
X_37_13 0
X_37_14 0
X_37_15 0
X_37_16 0
X_37_17 0
X_37_18 0
X_37_19 0
X_37_20 0
X_37_21 0
X_37_22 0
X_37_23 0
X_37_24 0
X_37_25 0
X_37_26 0
X_37_27 0
X_37_28 0
X_37_29 0
X_37_30 0
X_37_31 0
X_37_32 0
X_37_33 0
X_37_34 0
X_37_35 0
X_37_36 0
X_37_37 0
X_37_38 0
X_37_39 0
X_37_40 0
X_38_1 0
X_38_2 0
X_38_3 0
X_38_4 0
X_38_5 0
X_38_6 0
X_38_7 0
X_38_8 0
X_38_9 0
X_38_10 0
X_38_11 0
X_38_12 1
X_38_13 0
X_38_14 0
X_38_15 0
X_38_16 0
X_38_17 0
X_38_18 0
X_38_19 0
X_38_20 0
X_38_21 0
X_38_22 0
X_38_23 0
X_38_24 0
X_38_25 0
X_38_26 0
X_38_27 0
X_38_28 0
X_38_29 0
X_38_30 0
X_38_31 0
X_38_32 0
X_38_33 0
X_38_34 0
X_38_35 0
X_38_36 0
X_38_37 0
X_38_38 0
X_38_39 0
X_38_40 0
X_39_1 0
X_39_2 0
X_39_3 0
X_39_4 0
X_39_5 0
X_39_6 0
X_39_7 0
X_39_8 0
X_39_9 0
X_39_10 0
X_39_11 0
X_39_12 1
X_39_13 0
X_39_14 0
X_39_15 0
X_39_16 0
X_39_17 0
X_39_18 0
X_39_19 0
X_39_20 0
X_39_21 0
X_39_22 0
X_39_23 0
X_39_24 0
X_39_25 0
X_39_26 0
X_39_27 0
X_39_28 0
X_39_29 0
X_39_30 0
X_39_31 0
X_39_32 0
X_39_33 0
X_39_34 0
X_39_35 0
X_39_36 0
X_39_37 0
X_39_38 0
X_39_39 0
X_39_40 0
X_40_1 0
X_40_2 0
X_40_3 0
X_40_4 0
X_40_5 0
X_40_6 0
X_40_7 0
X_40_8 0
X_40_9 0
X_40_10 0
X_40_11 0
X_40_12 1
X_40_13 0
X_40_14 0
X_40_15 0
X_40_16 0
X_40_17 0
X_40_18 0
X_40_19 0
X_40_20 0
X_40_21 0
X_40_22 0
X_40_23 0
X_40_24 0
X_40_25 0
X_40_26 0
X_40_27 0
X_40_28 0
X_40_29 0
X_40_30 0
X_40_31 0
X_40_32 0
X_40_33 0
X_40_34 0
X_40_35 0
X_40_36 0
X_40_37 0
X_40_38 0
X_40_39 0
X_40_40 0
r_1 0
r_2 1.6481665162999339e+04
r_3 1.9620701178999338e+04
r_4 0
r_5 2.0656116977999336e+04
r_6 1.8612719868999338e+04
r_7 3.8536428789998918e+03
r_8 0
r_9 1.4930165945999335e+04
r_10 2.0034895711999339e+04
r_11 2.2539017278999338e+04
r_12 26132.637227
r_13 2.2631004270999336e+04
r_14 2.0135519266999338e+04
r_15 1.7180652331999339e+04
r_16 1.1843428306999336e+04
r_17 1.3893653811999338e+04
r_18 1.6281713039999337e+04
r_19 1.8593493651999339e+04
r_20 1.8370039611999338e+04
r_21 1.6548625418999338e+04
r_22 1.5931279081999335e+04
r_23 1.8940807989999048e+03
r_24 8625.59006999934
r_25 1.0281283287999340e+04
r_26 1.3836100011999337e+04
r_27 1.1804173426999336e+04
r_28 1.1678266920999336e+04
r_29 1.2348561963999335e+04
r_30 1.2571458183999337e+04
r_31 1.2872004030999338e+04
r_32 0
r_33 0
r_34 6.5331593069993360e+03
r_35 7.0810220719993413e+03
r_36 9.3312152029993340e+03
r_37 1.0701838633999334e+04
r_38 8205.40244399934
r_39 9408.07859599934
r_40 8.6445110259993417e+03
r_0 0
